c random assignment satisfied 0/430 clauses
o 430
c flipped 19/100 variables (k=19)
c solution improved by 1 clause
o 429
c flipped 19/100 variables (k=19)
c solution improved by 144 clauses
o 285
c flipped 19/100 variables (k=19)
c solution improved by 87 clauses
o 198
c flipped 19/100 variables (k=19)
c solution improved by 16 clauses
o 182
c flipped 19/100 variables (k=19)
c solution improved by 4 clauses
o 178
c flipped 19/100 variables (k=19)
c solution improved by 2 clauses
o 176
c flipped 19/100 variables (k=19)
c solution improved by 8 clauses
o 168
c flipped 19/100 variables (k=19)
c solution improved by 64 clauses
o 104
c flipped 19/100 variables (k=19)
c solution improved by 5 clauses
o 99
c flipped 19/100 variables (k=19)
c solution improved by 1 clause
o 98
c flipped 19/100 variables (k=19)
c solution improved by 1 clause
o 97
c flipped 19/100 variables (k=19)
c solution improved by 1 clause
o 96
c flipped 19/100 variables (k=19)
c solution improved by 1 clause
o 95
c flipped 19/100 variables (k=19)
c solution improved by 8 clauses
o 87
c flipped 19/100 variables (k=19)
c solution improved by 4 clauses
o 83
c flipped 19/100 variables (k=19)
c solution improved by 2 clauses
o 81
c flipped 17/100 variables (k=19)
c solution improved by 3 clauses
o 78
c flipped 19/100 variables (k=19)
c solution improved by 1 clause
o 77
c flipped 19/100 variables (k=19)
c solution improved by 1 clause
o 76
c flipped 19/100 variables (k=19)
c solution improved by 30 clauses
o 46
c flipped 19/100 variables (k=19)
c solution improved by 1 clause
o 45
c flipped 19/100 variables (k=19)
c solution improved by 1 clause
o 44
c flipped 19/100 variables (k=19)
c solution improved by 3 clauses
o 41
c flipped 19/100 variables (k=19)
c solution improved by 1 clause
o 40
c flipped 19/100 variables (k=19)
c solution improved by 1 clause
o 39
c flipped 15/100 variables (k=19)
c solution improved by 17 clauses
o 22
c flipped 15/100 variables (k=19)
c solution improved by 1 clause
o 21
c flipped 19/100 variables (k=19)
c solution improved by 1 clause
o 20
c flipped 19/100 variables (k=19)
c solution improved by 4 clauses
o 16
c flipped 19/100 variables (k=19)
c solution improved by 4 clauses
o 12
c flipped 19/100 variables (k=19)
c solution improved by 1 clause
o 11
c flipped 19/100 variables (k=19)
c solution improved by 3 clauses
o 8
c flipped 19/100 variables (k=19)
c solution improved by 1 clause
o 7
c flipped 19/100 variables (k=19)
c solution improved by 1 clause
o 6
c flipped 19/100 variables (k=19)
c solution improved by 1 clause
o 5
c flipped 19/100 variables (k=19)
c solution improved by 1 clause
o 4
c flipped 19/100 variables (k=19)
c solution improved by 1 clause
o 3
c flipped 19/100 variables (k=19)
c solution improved by 1 clause
o 2
c flipped 19/100 variables (k=19)
c solution improved by 1 clause
o 1
v 1001111111010100111010110110011111101111100010110110001110010100101101010000001011111001010100100110
c stuck at 429/430 clauses with k=19
s UNKNOWN
